
  32    4
  10   10   10   10

   0   0   0   0   0   1 2 
   3  10  10  10  10   1 3 
   1  10  10  10  10   1 4 
   4  10  10  10  10   1 5 
   2  10  10  10  10   2 22 6 
   1  10  10  10  10   1 7 
   5  10  10  10  10   1 8 
   2  10  10  10  10   2 13 9 
   8  10  10  10  10   1 10 
   1  10  10  10  10   1 11 
   5  10  10  10  10   1 12 
   4  10  10  10  10   1 14 
   8  10  10  10  10   1 14 
   5  10  10  10  10   1 15 
   1  10  10  10  10   1 16 
   7  10  10  10  10   1 17 
   5  10  10  10  10   1 18 
   2  10  10  10  10   2 25 19 
   1  10  10  10  10   2 23 20 
  10  10  10  10  10   1 21 
   3  10  10  10  10   2 31 24 
  10  10  10  10  10   2 31 24 
   6  10  10  10  10   2 31 27 
   2  10  10  10  10   1 26 
   2  10  10  10  10   1 26 
   8  10  10  10  10   1 27 
   3  10  10  10  10   2 30 28 
   4  10  10  10  10   1 29 
   8  10  10  10  10   1 32
   9  10  10  10  10   1 32
   6  10  10  10  10   1 32
   0   0   0   0   0   0 
